data;
param n:=50;
param w:=1 103 2 -86 3 45 4 -271 5 -47 6 215 7 -77 8 -89 9 -79 10 168 11 -84 12 107 13 -14 14 -128 15 -261 16 -172 17 191 18 195 19 -192 20 105 21 -15 22 -172 23 85 24 -155 25 -48 26 177 27 82 28 103 29 8 30 105 31 125 32 99 33 -6 34 220 35 -49 36 -161 37 195 38 123 39 73 40 -36 41 122 42 -130 43 145 44 -104 45 76 46 -132 47 -181 48 40 49 8 50 -226;
